# Solution for model GasLib-40
# Objective value = 6.1124143697825055e+01
loadshed[innode_1] 0
loadshed[innode_2] 0
loadshed[innode_3] 0
loadshed[innode_4] 0
loadshed[innode_5] 0
loadshed[innode_6] 0
loadshed[innode_7] 0
loadshed[innode_8] 0
loadshed[source_1] -5.6104013914333395e-02
loadshed[source_2] 9.9911330806532472e-02
loadshed[source_3] 3.4283343393081711e-01
loadshed[sink_1] 7.7208405424309079e-01
loadshed[sink_2] 0
loadshed[sink_3] 0
loadshed[sink_4] 0
loadshed[sink_5] 0
loadshed[sink_6] 0
loadshed[sink_7] 0
loadshed[sink_8] 0
loadshed[sink_9] 0
loadshed[sink_10] 0
loadshed[sink_11] 0
loadshed[sink_12] 1
loadshed[sink_13] 0
loadshed[sink_14] 0
loadshed[sink_15] 0
loadshed[sink_16] 0
loadshed[sink_17] 0
loadshed[sink_18] 0
loadshed[sink_19] 0
loadshed[sink_20] 0
loadshed[sink_21] 1
loadshed[sink_22] 0
loadshed[sink_23] 0
loadshed[sink_24] 9.6544320371309056e-01
loadshed[sink_25] 0
loadshed[sink_26] 0
loadshed[sink_27] 0
loadshed[sink_28] 0
loadshed[sink_29] 0
flow[source_1,sink_3] 1.6695977692194305e+02
flow[innode_1,sink_16] 1.6354166666666970e+01
flow[innode_6,sink_13] 1.0587521690521655e+01
flow[sink_13,sink_14] -5.7666449761450131e+00
flow[sink_14,sink_10] -2.2120811642811681e+01
flow[sink_25,sink_26] 0
flow[sink_26,sink_9] 8.6063356302174952e+01
flow[sink_9,sink_18] 6.9709189635508281e+01
flow[sink_26,sink_4] -1.0241752296884161e+02
flow[sink_4,sink_20] -1.0023055336524206e+02
flow[sink_18,sink_6] 5.3355022968841610e+01
flow[sink_25,innode_8] -1.3425144358860669e+02
flow[sink_6,sink_7] 1.6919314272608833e+01
flow[sink_6,sink_22] 2.0081542029566123e+01
flow[sink_7,sink_24] 5.6514760594216540e-01
flow[sink_22,sink_1] 3.7273753628994530e+00
flow[sink_24,sink_21] 0
flow[sink_21,sink_12] 0
flow[sink_7,sink_5] 0
flow[sink_5,sink_17] -1.6354166666667197e+01
flow[sink_17,sink_4] 1.8541136270266179e+01
flow[sink_17,sink_8] -5.1249469603600019e+01
flow[sink_3,sink_23] 16.3541666666697
flow[sink_8,sink_20] -6.7603636270266691e+01
flow[sink_25,sink_20] 1.8418835630217541e+02
flow[sink_25,sink_15] -7.6878601070757711e+01
flow[sink_15,sink_29] -53.2077375509132
flow[sink_29,sink_28] 1.6354166666667879e+01
flow[sink_29,sink_2] 5.6379196853177852e+01
flow[sink_2,sink_15] 4.0025030186511188e+01
flow[sink_29,innode_7] -1.4229526773742560e+02
flow[innode_4,sink_19] 0
flow[sink_19,innode_3] 3.4737155617096732e+01
flow[innode_4,innode_5] 1.0389164497614547e+02
flow[sink_27,innode_5] -1.0389164497614547e+02
flow[sink_27,sink_19] 87.5374783094788
flow[sink_10,sink_11] 3.2708333333333641e+01
flow[sink_10,innode_2] -3.6446156025715254e+01
flow[sink_10,innode_3] -3.4737155617096732e+01
flow[innode_6,sink_25] -1.0587521690521655e+01
flow[sink_11,innode_1] 1.6354166666666970e+01
flow[sink_19,innode_2] 3.6446156025715254e+01
flow[source_3,innode_4] 1.0389164497614547e+02
flow[source_2,innode_7] 1.4229526773742560e+02
flow[sink_3,innode_8] 1.3425144358860669e+02
pressure[innode_1] 7.6122186002361929e+01
pressure[innode_2] 7.8200217183478841e+01
pressure[innode_3] 7.8123295685920922e+01
pressure[innode_4] 81.01325
pressure[innode_5] 80.941787848362
pressure[innode_6] 7.5275651315455875e+01
pressure[innode_7] 81.01325
pressure[innode_8] 8.0455167246696533e+01
pressure[source_1] 81.01325
pressure[source_2] 81.01325
pressure[source_3] 81.01325
pressure[sink_1] 1.01325
pressure[sink_2] 7.5779260345020916e+01
pressure[sink_3] 8.0455167246696533e+01
pressure[sink_4] 2.4012330913342282e+01
pressure[sink_5] 23.5026447987301
pressure[sink_6] 1.8925637544296532e+00
pressure[sink_7] 1.6603018990080309e+00
pressure[sink_8] 2.6654687635076684e+01
pressure[sink_9] 5.8395879766078860e+00
pressure[sink_10] 7.6273887309965474e+01
pressure[sink_11] 7.6122186002361929e+01
pressure[sink_12] 1.0132500000000004e+00
pressure[sink_13] 7.5217284077715263e+01
pressure[sink_14] 7.5227603980109649e+01
pressure[sink_15] 7.5648587442836529e+01
pressure[sink_16] 7.5100536167544249e+01
pressure[sink_17] 2.4720912004084848e+01
pressure[sink_18] 3.3173017264777980e+00
pressure[sink_19] 7.8200217183478841e+01
pressure[sink_20] 3.1365710354854006e+01
pressure[sink_21] 1.0132500000000004e+00
pressure[sink_22] 1.2556999501468540e+00
pressure[sink_23] 8.0290449235036746e+01
pressure[sink_24] 1.0132500000000004e+00
pressure[sink_25] 7.5275651315455875e+01
pressure[sink_26] 1.0990701974701205e+01
pressure[sink_27] 8.0079679166178408e+01
pressure[sink_28] 76.9121267554776
pressure[sink_29] 7.7207409029094777e+01
interdiction[source_1,sink_3] 0
interdiction[innode_1,sink_16] 0
interdiction[innode_6,sink_13] 0
interdiction[sink_13,sink_14] 0
interdiction[sink_14,sink_10] 0
interdiction[sink_25,sink_26] 1
interdiction[sink_26,sink_9] 0
interdiction[sink_9,sink_18] 0
interdiction[sink_26,sink_4] 0
interdiction[sink_4,sink_20] 0
interdiction[sink_18,sink_6] 0
interdiction[sink_25,innode_8] 0
interdiction[sink_6,sink_7] 0
interdiction[sink_6,sink_22] 0
interdiction[sink_7,sink_24] 0
interdiction[sink_22,sink_1] 0
interdiction[sink_24,sink_21] 0
interdiction[sink_21,sink_12] 0
interdiction[sink_7,sink_5] 1
interdiction[sink_5,sink_17] 0
interdiction[sink_17,sink_4] 0
interdiction[sink_17,sink_8] 0
interdiction[sink_3,sink_23] 0
interdiction[sink_8,sink_20] 0
interdiction[sink_25,sink_20] 0
interdiction[sink_25,sink_15] 0
interdiction[sink_15,sink_29] 0
interdiction[sink_29,sink_28] 0
interdiction[sink_29,sink_2] 0
interdiction[sink_2,sink_15] 0
interdiction[sink_29,innode_7] 0
interdiction[innode_4,sink_19] 1
interdiction[sink_19,innode_3] 0
interdiction[innode_4,innode_5] 0
interdiction[sink_27,innode_5] 0
interdiction[sink_27,sink_19] 0
interdiction[sink_10,sink_11] 0
interdiction[sink_10,innode_2] 0
interdiction[sink_10,innode_3] 0
interdiction[innode_6,sink_25] 0
interdiction[sink_11,innode_1] 0
interdiction[sink_19,innode_2] 0
interdiction[source_3,innode_4] 0
interdiction[source_2,innode_7] 0
interdiction[sink_3,innode_8] 0
WCcheckFlow[source_1,sink_3] 39
WCcheckFlow[innode_1,sink_16] 1
WCcheckFlow[innode_6,sink_13] 13
WCcheckFlow[sink_13,sink_14] 12
WCcheckFlow[sink_14,sink_10] 11
WCcheckFlow[sink_25,sink_26] 0
WCcheckFlow[sink_26,sink_9] 9
WCcheckFlow[sink_9,sink_18] 8
WCcheckFlow[sink_26,sink_4] -10
WCcheckFlow[sink_4,sink_20] -14
WCcheckFlow[sink_18,sink_6] 7
WCcheckFlow[sink_25,innode_8] -36
WCcheckFlow[sink_6,sink_7] 4
WCcheckFlow[sink_6,sink_22] 2
WCcheckFlow[sink_7,sink_24] 3
WCcheckFlow[sink_22,sink_1] 1
WCcheckFlow[sink_24,sink_21] 2
WCcheckFlow[sink_21,sink_12] 1
WCcheckFlow[sink_7,sink_5] 0
WCcheckFlow[sink_5,sink_17] -1
WCcheckFlow[sink_17,sink_4] -3
WCcheckFlow[sink_17,sink_8] 1
WCcheckFlow[sink_3,sink_23] 1
WCcheckFlow[sink_8,sink_20] 0
WCcheckFlow[sink_25,sink_20] 15
WCcheckFlow[sink_25,sink_15] 6
WCcheckFlow[sink_15,sink_29] 5
WCcheckFlow[sink_29,sink_28] 1
WCcheckFlow[sink_29,sink_2] 1
WCcheckFlow[sink_2,sink_15] 0
WCcheckFlow[sink_29,innode_7] 2
WCcheckFlow[innode_4,sink_19] 0
WCcheckFlow[sink_19,innode_3] -5
WCcheckFlow[innode_4,innode_5] -2
WCcheckFlow[sink_27,innode_5] 3
WCcheckFlow[sink_27,sink_19] -4
WCcheckFlow[sink_10,sink_11] 3
WCcheckFlow[sink_10,innode_2] 1
WCcheckFlow[sink_10,innode_3] 6
WCcheckFlow[innode_6,sink_25] -14
WCcheckFlow[sink_11,innode_1] 2
WCcheckFlow[sink_19,innode_2] 0
WCcheckFlow[source_3,innode_4] -1
WCcheckFlow[source_2,innode_7] -1
WCcheckFlow[sink_3,innode_8] 37
